NAME : random124.850.tour
COMMENT : Length = 850
COMMENT : Found by LKH [Keld Helsgaun] Tue Sep  3 16:42:45 2024
TYPE : TOUR
DIMENSION : 124
TOUR_SECTION
1
30
48
21
9
119
103
54
108
45
23
66
47
37
72
18
26
34
5
17
74
76
106
124
27
65
60
31
120
57
53
68
7
92
113
14
55
107
69
10
41
77
50
51
96
88
20
109
38
59
121
71
15
36
29
24
94
25
104
112
91
39
44
85
82
100
90
79
114
97
115
93
80
42
73
102
105
86
8
111
118
83
6
67
32
64
33
40
11
110
62
4
75
117
2
78
12
43
63
56
49
87
22
19
122
3
116
84
70
16
52
61
58
123
89
101
81
28
95
98
13
46
99
35
-1
EOF
